DIMACS2
40 66 274 208 43 107 5 232 247 25 298 145 90 130 23 225 95 65 126 185 235 168 120 122 314 249 104 13 286 15 304 207 230 103 264 34 20 156 133 31 306
p edge 320 541
e 0 303 2.0
e 1 3 1.0
e 2 50 1.0
e 3 184 2.0
e 4 26 1.0
e 5 193 29.0
e 5 223 42.0
e 5 318 12.0
e 5 172 46.0
e 5 109 32.0
e 5 8 33.0
e 5 90 37.0
e 5 168 4.0
e 6 196 5.0
e 7 292 1.0
e 8 96 3.0
e 9 254 1.0
e 10 183 2.0
e 11 131 1.0
e 12 101 1.0
e 13 121 12.0
e 13 142 45.0
e 13 206 28.0
e 13 264 24.0
e 13 168 15.0
e 13 56 44.0
e 13 52 27.0
e 13 244 16.0
e 13 119 6.0
e 14 269 4.0
e 15 169 39.0
e 15 189 29.0
e 15 211 17.0
e 15 25 39.0
e 15 90 8.0
e 15 210 29.0
e 15 29 10.0
e 16 113 1.0
e 17 267 1.0
e 18 194 1.0
e 19 317 1.0
e 19 0 1.0
e 20 149 33.0
e 20 223 42.0
e 20 53 4.0
e 20 280 6.0
e 20 21 35.0
e 20 122 26.0
e 20 274 38.0
e 20 114 22.0
e 20 168 5.0
e 21 108 1.0
e 22 231 1.0
e 23 266 36.0
e 23 282 20.0
e 23 83 37.0
e 23 148 45.0
e 23 304 35.0
e 23 63 40.0
e 24 136 1.0
e 25 272 9.0
e 25 314 17.0
e 25 162 40.0
e 25 294 14.0
e 25 224 35.0
e 25 249 41.0
e 25 182 17.0
e 26 96 1.0
e 27 269 2.0
e 28 65 2.0
e 28 168 38.0
e 29 262 1.0
e 30 124 4.0
e 31 195 24.0
e 31 152 39.0
e 31 98 49.0
e 31 107 34.0
e 31 125 25.0
e 31 7 39.0
e 31 12 21.0
e 32 178 1.0
e 33 287 2.0
e 34 101 25.0
e 34 163 4.0
e 34 305 6.0
e 34 251 32.0
e 34 1 10.0
e 34 90 15.0
e 34 84 34.0
e 34 288 33.0
e 34 104 1.0
e 35 153 1.0
e 36 8 3.0
e 37 213 1.0
e 38 180 1.0
e 39 81 1.0
e 40 179 1.0
e 41 113 4.0
e 42 171 1.0
e 43 223 26.0
e 43 204 39.0
e 43 147 33.0
e 43 124 29.0
e 43 257 45.0
e 43 172 16.0
e 43 282 40.0
e 43 308 21.0
e 44 240 1.0
e 45 145 19.0
e 45 74 9.0
e 45 15 11.0
e 46 43 15.0
e 47 313 1.0
e 48 262 1.0
e 49 39 1.0
e 50 41 1.0
e 51 187 1.0
e 52 293 1.0
e 53 151 1.0
e 54 70 1.0
e 55 180 1.0
e 56 175 1.0
e 57 136 1.0
e 58 6 5.0
e 59 73 3.0
e 60 46 1.0
e 61 264 17.0
e 62 23 31.0
e 63 81 12.0
e 64 137 1.0
e 65 67 44.0
e 65 43 22.0
e 65 54 23.0
e 65 283 25.0
e 65 192 44.0
e 65 205 21.0
e 65 295 43.0
e 66 15 14.0
e 66 5 5.0
e 66 241 23.0
e 66 197 31.0
e 66 235 41.0
e 66 270 35.0
e 66 133 29.0
e 66 126 44.0
e 67 266 1.0
e 68 121 1.0
e 69 239 1.0
e 70 199 1.0
e 71 79 2.0
e 72 127 1.0
e 73 198 2.0
e 74 76 1.0
e 75 127 1.0
e 76 173 1.0
e 77 97 2.0
e 78 186 1.0
e 79 15 36.0
e 80 65 39.0
e 81 261 1.0
e 82 101 3.0
e 83 284 2.0
e 84 312 1.0
e 85 14 3.0
e 86 87 1.0
e 87 123 1.0
e 88 120 25.0
e 89 55 1.0
e 90 229 2.0
e 90 216 31.0
e 90 270 21.0
e 90 154 34.0
e 91 170 1.0
e 92 108 3.0
e 93 166 1.0
e 94 57 1.0
e 95 112 13.0
e 95 274 11.0
e 95 60 43.0
e 95 31 32.0
e 95 247 10.0
e 95 107 40.0
e 95 249 15.0
e 95 2 5.0
e 96 233 1.0
e 97 5 6.0
e 98 227 4.0
e 99 131 1.0
e 100 31 34.0
e 101 66 22.0
e 102 46 2.0
e 103 287 45.0
e 103 207 5.0
e 103 156 48.0
e 103 242 49.0
e 103 158 43.0
e 103 40 31.0
e 104 208 33.0
e 104 20 29.0
e 104 139 36.0
e 104 264 22.0
e 104 77 14.0
e 104 168 12.0
e 104 285 26.0
e 104 120 18.0
e 105 80 4.0
e 106 263 1.0
e 107 14 20.0
e 107 274 43.0
e 107 275 18.0
e 107 264 31.0
e 107 309 37.0
e 107 85 48.0
e 107 174 41.0
e 108 273 1.0
e 109 292 1.0
e 110 150 1.0
e 111 297 1.0
e 111 19 1.0
e 112 23 37.0
e 113 23 5.0
e 114 198 1.0
e 115 25 43.0
e 116 103 27.0
e 117 165 1.0
e 118 222 2.0
e 119 240 1.0
e 120 300 7.0
e 120 264 2.0
e 120 130 21.0
e 120 289 15.0
e 120 190 1.0
e 120 277 42.0
e 120 122 3.0
e 121 160 1.0
e 122 88 45.0
e 122 304 45.0
e 122 86 5.0
e 122 135 17.0
e 122 274 32.0
e 123 118 1.0
e 124 253 1.0
e 125 229 1.0
e 126 112 26.0
e 126 185 21.0
e 126 22 44.0
e 126 115 18.0
e 126 200 31.0
e 126 141 36.0
e 126 203 47.0
e 127 281 1.0
e 128 11 1.0
e 129 272 1.0
e 130 302 9.0
e 130 274 2.0
e 130 42 26.0
e 130 185 1.0
e 130 156 2.0
e 130 28 18.0
e 130 90 45.0
e 131 51 1.0
e 132 16 1.0
e 133 29 40.0
e 133 105 6.0
e 133 207 43.0
e 133 208 36.0
e 133 237 18.0
e 133 78 9.0
e 133 120 5.0
e 134 130 43.0
e 135 155 1.0
e 136 28 11.0
e 137 278 1.0
e 138 19 1.0
e 139 170 1.0
e 140 226 2.0
e 141 187 1.0
e 142 123 1.0
e 143 202 1.0
e 144 80 1.0
e 145 227 35.0
e 145 286 29.0
e 145 207 47.0
e 145 122 38.0
e 145 61 29.0
e 145 92 18.0
e 145 107 25.0
e 145 126 23.0
e 146 302 1.0
e 147 35 1.0
e 148 140 1.0
e 149 279 1.0
e 150 243 1.0
e 151 4 2.0
e 152 102 1.0
e 153 157 1.0
e 154 151 2.0
e 155 301 1.0
e 156 106 15.0
e 156 215 25.0
e 156 128 48.0
e 156 274 15.0
e 156 95 36.0
e 156 17 34.0
e 157 140 1.0
e 158 299 1.0
e 159 41 1.0
e 160 212 1.0
e 161 246 1.0
e 162 175 1.0
e 163 166 1.0
e 164 188 3.0
e 165 264 22.0
e 166 176 1.0
e 167 6 5.0
e 168 49 45.0
e 168 286 46.0
e 168 145 42.0
e 168 129 2.0
e 169 133 49.0
e 170 48 2.0
e 171 176 1.0
e 172 131 5.0
e 173 37 1.0
e 174 177 1.0
e 175 167 1.0
e 176 159 1.0
e 177 38 1.0
e 178 30 1.0
e 179 292 1.0
e 180 259 1.0
e 181 59 2.0
e 182 278 1.0
e 183 194 2.0
e 184 276 1.0
e 185 172 42.0
e 185 156 48.0
e 185 168 36.0
e 185 217 23.0
e 185 62 17.0
e 185 207 30.0
e 186 191 1.0
e 187 106 1.0
e 188 243 2.0
e 189 117 2.0
e 190 188 2.0
e 191 219 1.0
e 192 44 1.0
e 193 246 1.0
e 194 287 2.0
e 195 250 1.0
e 196 260 1.0
e 197 290 1.0
e 198 175 1.0
e 199 258 1.0
e 200 238 1.0
e 201 316 2.0
e 202 307 1.0
e 203 194 1.0
e 204 151 1.0
e 205 59 2.0
e 206 269 1.0
e 207 116 42.0
e 207 93 18.0
e 207 265 41.0
e 207 225 49.0
e 208 266 3.0
e 208 218 36.0
e 208 286 17.0
e 208 264 24.0
e 208 130 32.0
e 208 185 14.0
e 209 31 14.0
e 210 221 1.0
e 211 269 1.0
e 212 16 1.0
e 213 214 1.0
e 214 175 1.0
e 215 106 1.0
e 216 57 1.0
e 217 44 1.0
e 218 123 2.0
e 219 201 1.0
e 220 207 38.0
e 221 59 2.0
e 222 72 1.0
e 223 245 1.0
e 224 55 1.0
e 225 103 41.0
e 225 208 6.0
e 225 230 26.0
e 225 32 39.0
e 225 220 27.0
e 225 18 16.0
e 225 264 12.0
e 225 232 49.0
e 226 274 3.0
e 227 177 5.0
e 228 103 36.0
e 229 110 1.0
e 230 84 33.0
e 230 13 7.0
e 230 132 22.0
e 230 23 12.0
e 230 34 14.0
e 230 133 11.0
e 230 207 40.0
e 230 209 9.0
e 231 127 1.0
e 232 294 2.0
e 232 291 2.0
e 232 315 29.0
e 232 45 28.0
e 232 230 13.0
e 232 134 14.0
e 232 63 10.0
e 233 88 1.0
e 234 252 1.0
e 235 183 26.0
e 235 103 2.0
e 235 47 14.0
e 235 25 30.0
e 235 274 40.0
e 235 98 30.0
e 235 9 38.0
e 235 99 17.0
e 236 266 1.0
e 237 79 1.0
e 238 49 2.0
e 239 84 10.0
e 240 228 3.0
e 241 234 2.0
e 242 33 1.0
e 243 268 1.0
e 244 118 2.0
e 245 267 1.0
e 246 24 2.0
e 247 63 11.0
e 247 225 30.0
e 247 232 33.0
e 247 65 1.0
e 247 296 25.0
e 247 297 47.0
e 247 235 49.0
e 248 245 1.0
e 249 27 4.0
e 249 298 46.0
e 249 100 40.0
e 249 236 22.0
e 249 264 49.0
e 249 247 19.0
e 249 274 34.0
e 250 122 40.0
e 251 36 1.0
e 252 232 32.0
e 253 286 42.0
e 254 271 1.0
e 255 36 1.0
e 256 166 1.0
e 257 75 2.0
e 258 164 1.0
e 259 316 3.0
e 260 87 1.0
e 261 24 1.0
e 262 64 1.0
e 263 90 10.0
e 264 181 29.0
e 265 239 1.0
e 266 143 1.0
e 267 57 1.0
e 268 255 1.0
e 269 181 1.0
e 270 247 23.0
e 271 37 1.0
e 272 187 1.0
e 273 170 2.0
e 274 281 3.0
e 275 294 10.0
e 276 14 2.0
e 277 255 1.0
e 278 144 1.0
e 279 208 39.0
e 280 51 2.0
e 281 156 19.0
e 282 95 47.0
e 283 221 1.0
e 284 185 33.0
e 285 89 1.0
e 286 234 7.0
e 286 249 7.0
e 286 304 29.0
e 286 298 42.0
e 286 305 20.0
e 287 102 1.0
e 288 102 1.0
e 289 24 1.0
e 290 37 2.0
e 291 91 1.0
e 292 268 1.0
e 293 126 11.0
e 294 94 10.0
e 295 143 1.0
e 296 146 2.0
e 298 305 18.0
e 298 66 6.0
e 298 304 42.0
e 298 10 26.0
e 298 104 49.0
e 298 306 12.0
e 298 310 2.0
e 299 6 2.0
e 300 238 1.0
e 301 161 1.0
e 302 300 2.0
e 303 79 2.0
e 304 82 3.0
e 304 306 40.0
e 304 311 32.0
e 304 314 1.0
e 304 319 23.0
e 305 58 6.0
e 306 121 33.0
e 306 286 4.0
e 306 314 17.0
e 306 68 36.0
e 307 175 1.0
e 308 0 1.0
e 309 113 5.0
e 310 248 1.0
e 311 102 1.0
e 312 256 1.0
e 313 48 1.0
e 314 8 38.0
e 314 298 4.0
e 314 69 40.0
e 314 71 9.0
e 315 90 7.0
e 316 122 19.0
e 317 138 1.0
e 318 51 2.0
e 319 199 1.0
